(set-info :category "industrial")
(set-info :status sat)
(declare-fun x01 () (_ BitVec 8))
(declare-fun x02 () (_ BitVec 8))
(declare-fun x04 () (_ BitVec 8))
(declare-fun x05 () (_ BitVec 8))
(declare-fun x06 () (_ BitVec 8))
(declare-fun x07 () (_ BitVec 8))
(declare-fun x10 () (_ BitVec 8))
(declare-fun x13 () (_ BitVec 8))
(declare-fun x15 () (_ BitVec 8))
(declare-fun x17 () (_ BitVec 8))
(declare-fun x18 () (_ BitVec 8))
(declare-fun x21 () (_ BitVec 8))
(declare-fun x23 () (_ BitVec 8))
(declare-fun x24 () (_ BitVec 8))
(declare-fun x27 () (_ BitVec 8))
(declare-fun x28 () (_ BitVec 8))
(declare-fun x30 () (_ BitVec 8))
(declare-fun x31 () (_ BitVec 8))
(declare-fun x32 () (_ BitVec 8))
(declare-fun x33 () (_ BitVec 8))
(declare-fun x34 () (_ BitVec 8))
(declare-fun x35 () (_ BitVec 8))
(declare-fun x36 () (_ BitVec 8))
(declare-fun x37 () (_ BitVec 8))
(declare-fun x40 () (_ BitVec 8))
(declare-fun x41 () (_ BitVec 8))
(declare-fun x45 () (_ BitVec 8))
(declare-fun x48 () (_ BitVec 8))
(declare-fun x50 () (_ BitVec 8))
(declare-fun x52 () (_ BitVec 8))
(declare-fun x56 () (_ BitVec 8))
(declare-fun x57 () (_ BitVec 8))
(declare-fun x58 () (_ BitVec 8))
(declare-fun x61 () (_ BitVec 8))
(declare-fun x62 () (_ BitVec 8))
(declare-fun x65 () (_ BitVec 8))
(declare-fun x66 () (_ BitVec 8))
(declare-fun x68 () (_ BitVec 8))
(declare-fun x70 () (_ BitVec 8))
(declare-fun x71 () (_ BitVec 8))
(declare-fun x72 () (_ BitVec 8))
(declare-fun x73 () (_ BitVec 8))
(declare-fun x74 () (_ BitVec 8))
(declare-fun x77 () (_ BitVec 8))
(declare-fun x82 () (_ BitVec 8))
(declare-fun x83 () (_ BitVec 8))
(declare-fun x85 () (_ BitVec 8))
(declare-fun x86 () (_ BitVec 8))
(assert (bvult x01 (_ bv9 8)))
(assert (bvult x02 (_ bv9 8)))
(assert (bvult x04 (_ bv9 8)))
(assert (bvult x05 (_ bv9 8)))
(assert (bvult x06 (_ bv9 8)))
(assert (bvult x07 (_ bv9 8)))
(assert (bvult x10 (_ bv9 8)))
(assert (bvult x13 (_ bv9 8)))
(assert (bvult x15 (_ bv9 8)))
(assert (bvult x17 (_ bv9 8)))
(assert (bvult x18 (_ bv9 8)))
(assert (bvult x21 (_ bv9 8)))
(assert (bvult x23 (_ bv9 8)))
(assert (bvult x24 (_ bv9 8)))
(assert (bvult x27 (_ bv9 8)))
(assert (bvult x28 (_ bv9 8)))
(assert (bvult x30 (_ bv9 8)))
(assert (bvult x31 (_ bv9 8)))
(assert (bvult x32 (_ bv9 8)))
(assert (bvult x33 (_ bv9 8)))
(assert (bvult x34 (_ bv9 8)))
(assert (bvult x35 (_ bv9 8)))
(assert (bvult x36 (_ bv9 8)))
(assert (bvult x37 (_ bv9 8)))
(assert (bvult x40 (_ bv9 8)))
(assert (bvult x41 (_ bv9 8)))
(assert (bvult x45 (_ bv9 8)))
(assert (bvult x48 (_ bv9 8)))
(assert (bvult x50 (_ bv9 8)))
(assert (bvult x52 (_ bv9 8)))
(assert (bvult x56 (_ bv9 8)))
(assert (bvult x57 (_ bv9 8)))
(assert (bvult x58 (_ bv9 8)))
(assert (bvult x61 (_ bv9 8)))
(assert (bvult x62 (_ bv9 8)))
(assert (bvult x65 (_ bv9 8)))
(assert (bvult x66 (_ bv9 8)))
(assert (bvult x68 (_ bv9 8)))
(assert (bvult x70 (_ bv9 8)))
(assert (bvult x71 (_ bv9 8)))
(assert (bvult x72 (_ bv9 8)))
(assert (bvult x73 (_ bv9 8)))
(assert (bvult x74 (_ bv9 8)))
(assert (bvult x77 (_ bv9 8)))
(assert (bvult x82 (_ bv9 8)))
(assert (bvult x83 (_ bv9 8)))
(assert (bvult x85 (_ bv9 8)))
(assert (bvult x86 (_ bv9 8)))
(assert (not (= (_ bv2 8) x01)))
(assert (not (= (_ bv2 8) x02)))
(assert (not (= (_ bv2 8) (_ bv9 8))))
(assert (not (= (_ bv2 8) x04)))
(assert (not (= (_ bv2 8) x05)))
(assert (not (= (_ bv2 8) x06)))
(assert (not (= (_ bv2 8) x07)))
(assert (not (= (_ bv2 8) (_ bv3 8))))
(assert (not (= x01 x02)))
(assert (not (= x01 (_ bv9 8))))
(assert (not (= x01 x04)))
(assert (not (= x01 x05)))
(assert (not (= x01 x06)))
(assert (not (= x01 x07)))
(assert (not (= x01 (_ bv3 8))))
(assert (not (= x02 (_ bv9 8))))
(assert (not (= x02 x04)))
(assert (not (= x02 x05)))
(assert (not (= x02 x06)))
(assert (not (= x02 x07)))
(assert (not (= x02 (_ bv3 8))))
(assert (not (= (_ bv9 8) x04)))
(assert (not (= (_ bv9 8) x05)))
(assert (not (= (_ bv9 8) x06)))
(assert (not (= (_ bv9 8) x07)))
(assert (not (= (_ bv9 8) (_ bv3 8))))
(assert (not (= x04 x05)))
(assert (not (= x04 x06)))
(assert (not (= x04 x07)))
(assert (not (= x04 (_ bv3 8))))
(assert (not (= x05 x06)))
(assert (not (= x05 x07)))
(assert (not (= x05 (_ bv3 8))))
(assert (not (= x06 x07)))
(assert (not (= x06 (_ bv3 8))))
(assert (not (= x07 (_ bv3 8))))
(assert (not (= x10 (_ bv3 8))))
(assert (not (= x10 (_ bv5 8))))
(assert (not (= x10 x13)))
(assert (not (= x10 (_ bv7 8))))
(assert (not (= x10 x15)))
(assert (not (= x10 (_ bv9 8))))
(assert (not (= x10 x17)))
(assert (not (= x10 x18)))
(assert (not (= (_ bv3 8) (_ bv5 8))))
(assert (not (= (_ bv3 8) x13)))
(assert (not (= (_ bv3 8) (_ bv7 8))))
(assert (not (= (_ bv3 8) x15)))
(assert (not (= (_ bv3 8) (_ bv9 8))))
(assert (not (= (_ bv3 8) x17)))
(assert (not (= (_ bv3 8) x18)))
(assert (not (= (_ bv5 8) x13)))
(assert (not (= (_ bv5 8) (_ bv7 8))))
(assert (not (= (_ bv5 8) x15)))
(assert (not (= (_ bv5 8) (_ bv9 8))))
(assert (not (= (_ bv5 8) x17)))
(assert (not (= (_ bv5 8) x18)))
(assert (not (= x13 (_ bv7 8))))
(assert (not (= x13 x15)))
(assert (not (= x13 (_ bv9 8))))
(assert (not (= x13 x17)))
(assert (not (= x13 x18)))
(assert (not (= (_ bv7 8) x15)))
(assert (not (= (_ bv7 8) (_ bv9 8))))
(assert (not (= (_ bv7 8) x17)))
(assert (not (= (_ bv7 8) x18)))
(assert (not (= x15 (_ bv9 8))))
(assert (not (= x15 x17)))
(assert (not (= x15 x18)))
(assert (not (= (_ bv9 8) x17)))
(assert (not (= (_ bv9 8) x18)))
(assert (not (= x17 x18)))
(assert (not (= (_ bv6 8) x21)))
(assert (not (= (_ bv6 8) (_ bv1 8))))
(assert (not (= (_ bv6 8) x23)))
(assert (not (= (_ bv6 8) x24)))
(assert (not (= (_ bv6 8) (_ bv8 8))))
(assert (not (= (_ bv6 8) (_ bv4 8))))
(assert (not (= (_ bv6 8) x27)))
(assert (not (= (_ bv6 8) x28)))
(assert (not (= x21 (_ bv1 8))))
(assert (not (= x21 x23)))
(assert (not (= x21 x24)))
(assert (not (= x21 (_ bv8 8))))
(assert (not (= x21 (_ bv4 8))))
(assert (not (= x21 x27)))
(assert (not (= x21 x28)))
(assert (not (= (_ bv1 8) x23)))
(assert (not (= (_ bv1 8) x24)))
(assert (not (= (_ bv1 8) (_ bv8 8))))
(assert (not (= (_ bv1 8) (_ bv4 8))))
(assert (not (= (_ bv1 8) x27)))
(assert (not (= (_ bv1 8) x28)))
(assert (not (= x23 x24)))
(assert (not (= x23 (_ bv8 8))))
(assert (not (= x23 (_ bv4 8))))
(assert (not (= x23 x27)))
(assert (not (= x23 x28)))
(assert (not (= x24 (_ bv8 8))))
(assert (not (= x24 (_ bv4 8))))
(assert (not (= x24 x27)))
(assert (not (= x24 x28)))
(assert (not (= (_ bv8 8) (_ bv4 8))))
(assert (not (= (_ bv8 8) x27)))
(assert (not (= (_ bv8 8) x28)))
(assert (not (= (_ bv4 8) x27)))
(assert (not (= (_ bv4 8) x28)))
(assert (not (= x27 x28)))
(assert (not (= x30 x31)))
(assert (not (= x30 x32)))
(assert (not (= x30 x33)))
(assert (not (= x30 x34)))
(assert (not (= x30 x35)))
(assert (not (= x30 x36)))
(assert (not (= x30 x37)))
(assert (not (= x30 (_ bv4 8))))
(assert (not (= x31 x32)))
(assert (not (= x31 x33)))
(assert (not (= x31 x34)))
(assert (not (= x31 x35)))
(assert (not (= x31 x36)))
(assert (not (= x31 x37)))
(assert (not (= x31 (_ bv4 8))))
(assert (not (= x32 x33)))
(assert (not (= x32 x34)))
(assert (not (= x32 x35)))
(assert (not (= x32 x36)))
(assert (not (= x32 x37)))
(assert (not (= x32 (_ bv4 8))))
(assert (not (= x33 x34)))
(assert (not (= x33 x35)))
(assert (not (= x33 x36)))
(assert (not (= x33 x37)))
(assert (not (= x33 (_ bv4 8))))
(assert (not (= x34 x35)))
(assert (not (= x34 x36)))
(assert (not (= x34 x37)))
(assert (not (= x34 (_ bv4 8))))
(assert (not (= x35 x36)))
(assert (not (= x35 x37)))
(assert (not (= x35 (_ bv4 8))))
(assert (not (= x36 x37)))
(assert (not (= x36 (_ bv4 8))))
(assert (not (= x37 (_ bv4 8))))
(assert (not (= x40 x41)))
(assert (not (= x40 (_ bv9 8))))
(assert (not (= x40 (_ bv6 8))))
(assert (not (= x40 (_ bv1 8))))
(assert (not (= x40 x45)))
(assert (not (= x40 (_ bv5 8))))
(assert (not (= x40 (_ bv8 8))))
(assert (not (= x40 x48)))
(assert (not (= x41 (_ bv9 8))))
(assert (not (= x41 (_ bv6 8))))
(assert (not (= x41 (_ bv1 8))))
(assert (not (= x41 x45)))
(assert (not (= x41 (_ bv5 8))))
(assert (not (= x41 (_ bv8 8))))
(assert (not (= x41 x48)))
(assert (not (= (_ bv9 8) (_ bv6 8))))
(assert (not (= (_ bv9 8) (_ bv1 8))))
(assert (not (= (_ bv9 8) x45)))
(assert (not (= (_ bv9 8) (_ bv5 8))))
(assert (not (= (_ bv9 8) (_ bv8 8))))
(assert (not (= (_ bv9 8) x48)))
(assert (not (= (_ bv6 8) (_ bv1 8))))
(assert (not (= (_ bv6 8) x45)))
(assert (not (= (_ bv6 8) (_ bv5 8))))
(assert (not (= (_ bv6 8) (_ bv8 8))))
(assert (not (= (_ bv6 8) x48)))
(assert (not (= (_ bv1 8) x45)))
(assert (not (= (_ bv1 8) (_ bv5 8))))
(assert (not (= (_ bv1 8) (_ bv8 8))))
(assert (not (= (_ bv1 8) x48)))
(assert (not (= x45 (_ bv5 8))))
(assert (not (= x45 (_ bv8 8))))
(assert (not (= x45 x48)))
(assert (not (= (_ bv5 8) (_ bv8 8))))
(assert (not (= (_ bv5 8) x48)))
(assert (not (= (_ bv8 8) x48)))
(assert (not (= x50 (_ bv7 8))))
(assert (not (= x50 x52)))
(assert (not (= x50 (_ bv4 8))))
(assert (not (= x50 (_ bv9 8))))
(assert (not (= x50 (_ bv3 8))))
(assert (not (= x50 x56)))
(assert (not (= x50 x57)))
(assert (not (= x50 x58)))
(assert (not (= (_ bv7 8) x52)))
(assert (not (= (_ bv7 8) (_ bv4 8))))
(assert (not (= (_ bv7 8) (_ bv9 8))))
(assert (not (= (_ bv7 8) (_ bv3 8))))
(assert (not (= (_ bv7 8) x56)))
(assert (not (= (_ bv7 8) x57)))
(assert (not (= (_ bv7 8) x58)))
(assert (not (= x52 (_ bv4 8))))
(assert (not (= x52 (_ bv9 8))))
(assert (not (= x52 (_ bv3 8))))
(assert (not (= x52 x56)))
(assert (not (= x52 x57)))
(assert (not (= x52 x58)))
(assert (not (= (_ bv4 8) (_ bv9 8))))
(assert (not (= (_ bv4 8) (_ bv3 8))))
(assert (not (= (_ bv4 8) x56)))
(assert (not (= (_ bv4 8) x57)))
(assert (not (= (_ bv4 8) x58)))
(assert (not (= (_ bv9 8) (_ bv3 8))))
(assert (not (= (_ bv9 8) x56)))
(assert (not (= (_ bv9 8) x57)))
(assert (not (= (_ bv9 8) x58)))
(assert (not (= (_ bv3 8) x56)))
(assert (not (= (_ bv3 8) x57)))
(assert (not (= (_ bv3 8) x58)))
(assert (not (= x56 x57)))
(assert (not (= x56 x58)))
(assert (not (= x57 x58)))
(assert (not (= (_ bv7 8) x61)))
(assert (not (= (_ bv7 8) x62)))
(assert (not (= (_ bv7 8) (_ bv2 8))))
(assert (not (= (_ bv7 8) (_ bv3 8))))
(assert (not (= (_ bv7 8) x65)))
(assert (not (= (_ bv7 8) x66)))
(assert (not (= (_ bv7 8) (_ bv5 8))))
(assert (not (= (_ bv7 8) x68)))
(assert (not (= x61 x62)))
(assert (not (= x61 (_ bv2 8))))
(assert (not (= x61 (_ bv3 8))))
(assert (not (= x61 x65)))
(assert (not (= x61 x66)))
(assert (not (= x61 (_ bv5 8))))
(assert (not (= x61 x68)))
(assert (not (= x62 (_ bv2 8))))
(assert (not (= x62 (_ bv3 8))))
(assert (not (= x62 x65)))
(assert (not (= x62 x66)))
(assert (not (= x62 (_ bv5 8))))
(assert (not (= x62 x68)))
(assert (not (= (_ bv2 8) (_ bv3 8))))
(assert (not (= (_ bv2 8) x65)))
(assert (not (= (_ bv2 8) x66)))
(assert (not (= (_ bv2 8) (_ bv5 8))))
(assert (not (= (_ bv2 8) x68)))
(assert (not (= (_ bv3 8) x65)))
(assert (not (= (_ bv3 8) x66)))
(assert (not (= (_ bv3 8) (_ bv5 8))))
(assert (not (= (_ bv3 8) x68)))
(assert (not (= x65 x66)))
(assert (not (= x65 (_ bv5 8))))
(assert (not (= x65 x68)))
(assert (not (= x66 (_ bv5 8))))
(assert (not (= x66 x68)))
(assert (not (= (_ bv5 8) x68)))
(assert (not (= x70 x71)))
(assert (not (= x70 x72)))
(assert (not (= x70 x73)))
(assert (not (= x70 x74)))
(assert (not (= x70 (_ bv1 8))))
(assert (not (= x70 (_ bv6 8))))
(assert (not (= x70 x77)))
(assert (not (= x70 (_ bv2 8))))
(assert (not (= x71 x72)))
(assert (not (= x71 x73)))
(assert (not (= x71 x74)))
(assert (not (= x71 (_ bv1 8))))
(assert (not (= x71 (_ bv6 8))))
(assert (not (= x71 x77)))
(assert (not (= x71 (_ bv2 8))))
(assert (not (= x72 x73)))
(assert (not (= x72 x74)))
(assert (not (= x72 (_ bv1 8))))
(assert (not (= x72 (_ bv6 8))))
(assert (not (= x72 x77)))
(assert (not (= x72 (_ bv2 8))))
(assert (not (= x73 x74)))
(assert (not (= x73 (_ bv1 8))))
(assert (not (= x73 (_ bv6 8))))
(assert (not (= x73 x77)))
(assert (not (= x73 (_ bv2 8))))
(assert (not (= x74 (_ bv1 8))))
(assert (not (= x74 (_ bv6 8))))
(assert (not (= x74 x77)))
(assert (not (= x74 (_ bv2 8))))
(assert (not (= (_ bv1 8) (_ bv6 8))))
(assert (not (= (_ bv1 8) x77)))
(assert (not (= (_ bv1 8) (_ bv2 8))))
(assert (not (= (_ bv6 8) x77)))
(assert (not (= (_ bv6 8) (_ bv2 8))))
(assert (not (= x77 (_ bv2 8))))
(assert (not (= (_ bv8 8) (_ bv2 8))))
(assert (not (= (_ bv8 8) x82)))
(assert (not (= (_ bv8 8) x83)))
(assert (not (= (_ bv8 8) (_ bv6 8))))
(assert (not (= (_ bv8 8) x85)))
(assert (not (= (_ bv8 8) x86)))
(assert (not (= (_ bv8 8) (_ bv3 8))))
(assert (not (= (_ bv8 8) (_ bv1 8))))
(assert (not (= (_ bv2 8) x82)))
(assert (not (= (_ bv2 8) x83)))
(assert (not (= (_ bv2 8) (_ bv6 8))))
(assert (not (= (_ bv2 8) x85)))
(assert (not (= (_ bv2 8) x86)))
(assert (not (= (_ bv2 8) (_ bv3 8))))
(assert (not (= (_ bv2 8) (_ bv1 8))))
(assert (not (= x82 x83)))
(assert (not (= x82 (_ bv6 8))))
(assert (not (= x82 x85)))
(assert (not (= x82 x86)))
(assert (not (= x82 (_ bv3 8))))
(assert (not (= x82 (_ bv1 8))))
(assert (not (= x83 (_ bv6 8))))
(assert (not (= x83 x85)))
(assert (not (= x83 x86)))
(assert (not (= x83 (_ bv3 8))))
(assert (not (= x83 (_ bv1 8))))
(assert (not (= (_ bv6 8) x85)))
(assert (not (= (_ bv6 8) x86)))
(assert (not (= (_ bv6 8) (_ bv3 8))))
(assert (not (= (_ bv6 8) (_ bv1 8))))
(assert (not (= x85 x86)))
(assert (not (= x85 (_ bv3 8))))
(assert (not (= x85 (_ bv1 8))))
(assert (not (= x86 (_ bv3 8))))
(assert (not (= x86 (_ bv1 8))))
(assert (not (= (_ bv3 8) (_ bv1 8))))
(assert (not (= (_ bv2 8) x10)))
(assert (not (= (_ bv2 8) (_ bv6 8))))
(assert (not (= (_ bv2 8) x30)))
(assert (not (= (_ bv2 8) x40)))
(assert (not (= (_ bv2 8) x50)))
(assert (not (= (_ bv2 8) (_ bv7 8))))
(assert (not (= (_ bv2 8) x70)))
(assert (not (= (_ bv2 8) (_ bv8 8))))
(assert (not (= x10 (_ bv6 8))))
(assert (not (= x10 x30)))
(assert (not (= x10 x40)))
(assert (not (= x10 x50)))
(assert (not (= x10 (_ bv7 8))))
(assert (not (= x10 x70)))
(assert (not (= x10 (_ bv8 8))))
(assert (not (= (_ bv6 8) x30)))
(assert (not (= (_ bv6 8) x40)))
(assert (not (= (_ bv6 8) x50)))
(assert (not (= (_ bv6 8) (_ bv7 8))))
(assert (not (= (_ bv6 8) x70)))
(assert (not (= (_ bv6 8) (_ bv8 8))))
(assert (not (= x30 x40)))
(assert (not (= x30 x50)))
(assert (not (= x30 (_ bv7 8))))
(assert (not (= x30 x70)))
(assert (not (= x30 (_ bv8 8))))
(assert (not (= x40 x50)))
(assert (not (= x40 (_ bv7 8))))
(assert (not (= x40 x70)))
(assert (not (= x40 (_ bv8 8))))
(assert (not (= x50 (_ bv7 8))))
(assert (not (= x50 x70)))
(assert (not (= x50 (_ bv8 8))))
(assert (not (= (_ bv7 8) x70)))
(assert (not (= (_ bv7 8) (_ bv8 8))))
(assert (not (= x70 (_ bv8 8))))
(assert (not (= x01 (_ bv3 8))))
(assert (not (= x01 x21)))
(assert (not (= x01 x31)))
(assert (not (= x01 x41)))
(assert (not (= x01 (_ bv7 8))))
(assert (not (= x01 x61)))
(assert (not (= x01 x71)))
(assert (not (= x01 (_ bv2 8))))
(assert (not (= (_ bv3 8) x21)))
(assert (not (= (_ bv3 8) x31)))
(assert (not (= (_ bv3 8) x41)))
(assert (not (= (_ bv3 8) (_ bv7 8))))
(assert (not (= (_ bv3 8) x61)))
(assert (not (= (_ bv3 8) x71)))
(assert (not (= (_ bv3 8) (_ bv2 8))))
(assert (not (= x21 x31)))
(assert (not (= x21 x41)))
(assert (not (= x21 (_ bv7 8))))
(assert (not (= x21 x61)))
(assert (not (= x21 x71)))
(assert (not (= x21 (_ bv2 8))))
(assert (not (= x31 x41)))
(assert (not (= x31 (_ bv7 8))))
(assert (not (= x31 x61)))
(assert (not (= x31 x71)))
(assert (not (= x31 (_ bv2 8))))
(assert (not (= x41 (_ bv7 8))))
(assert (not (= x41 x61)))
(assert (not (= x41 x71)))
(assert (not (= x41 (_ bv2 8))))
(assert (not (= (_ bv7 8) x61)))
(assert (not (= (_ bv7 8) x71)))
(assert (not (= (_ bv7 8) (_ bv2 8))))
(assert (not (= x61 x71)))
(assert (not (= x61 (_ bv2 8))))
(assert (not (= x71 (_ bv2 8))))
(assert (not (= x02 (_ bv5 8))))
(assert (not (= x02 (_ bv1 8))))
(assert (not (= x02 x32)))
(assert (not (= x02 (_ bv9 8))))
(assert (not (= x02 x52)))
(assert (not (= x02 x62)))
(assert (not (= x02 x72)))
(assert (not (= x02 x82)))
(assert (not (= (_ bv5 8) (_ bv1 8))))
(assert (not (= (_ bv5 8) x32)))
(assert (not (= (_ bv5 8) (_ bv9 8))))
(assert (not (= (_ bv5 8) x52)))
(assert (not (= (_ bv5 8) x62)))
(assert (not (= (_ bv5 8) x72)))
(assert (not (= (_ bv5 8) x82)))
(assert (not (= (_ bv1 8) x32)))
(assert (not (= (_ bv1 8) (_ bv9 8))))
(assert (not (= (_ bv1 8) x52)))
(assert (not (= (_ bv1 8) x62)))
(assert (not (= (_ bv1 8) x72)))
(assert (not (= (_ bv1 8) x82)))
(assert (not (= x32 (_ bv9 8))))
(assert (not (= x32 x52)))
(assert (not (= x32 x62)))
(assert (not (= x32 x72)))
(assert (not (= x32 x82)))
(assert (not (= (_ bv9 8) x52)))
(assert (not (= (_ bv9 8) x62)))
(assert (not (= (_ bv9 8) x72)))
(assert (not (= (_ bv9 8) x82)))
(assert (not (= x52 x62)))
(assert (not (= x52 x72)))
(assert (not (= x52 x82)))
(assert (not (= x62 x72)))
(assert (not (= x62 x82)))
(assert (not (= x72 x82)))
(assert (not (= (_ bv9 8) x13)))
(assert (not (= (_ bv9 8) x23)))
(assert (not (= (_ bv9 8) x33)))
(assert (not (= (_ bv9 8) (_ bv6 8))))
(assert (not (= (_ bv9 8) (_ bv4 8))))
(assert (not (= (_ bv9 8) (_ bv2 8))))
(assert (not (= (_ bv9 8) x73)))
(assert (not (= (_ bv9 8) x83)))
(assert (not (= x13 x23)))
(assert (not (= x13 x33)))
(assert (not (= x13 (_ bv6 8))))
(assert (not (= x13 (_ bv4 8))))
(assert (not (= x13 (_ bv2 8))))
(assert (not (= x13 x73)))
(assert (not (= x13 x83)))
(assert (not (= x23 x33)))
(assert (not (= x23 (_ bv6 8))))
(assert (not (= x23 (_ bv4 8))))
(assert (not (= x23 (_ bv2 8))))
(assert (not (= x23 x73)))
(assert (not (= x23 x83)))
(assert (not (= x33 (_ bv6 8))))
(assert (not (= x33 (_ bv4 8))))
(assert (not (= x33 (_ bv2 8))))
(assert (not (= x33 x73)))
(assert (not (= x33 x83)))
(assert (not (= (_ bv6 8) (_ bv4 8))))
(assert (not (= (_ bv6 8) (_ bv2 8))))
(assert (not (= (_ bv6 8) x73)))
(assert (not (= (_ bv6 8) x83)))
(assert (not (= (_ bv4 8) (_ bv2 8))))
(assert (not (= (_ bv4 8) x73)))
(assert (not (= (_ bv4 8) x83)))
(assert (not (= (_ bv2 8) x73)))
(assert (not (= (_ bv2 8) x83)))
(assert (not (= x73 x83)))
(assert (not (= x04 (_ bv7 8))))
(assert (not (= x04 x24)))
(assert (not (= x04 x34)))
(assert (not (= x04 (_ bv1 8))))
(assert (not (= x04 (_ bv9 8))))
(assert (not (= x04 (_ bv3 8))))
(assert (not (= x04 x74)))
(assert (not (= x04 (_ bv6 8))))
(assert (not (= (_ bv7 8) x24)))
(assert (not (= (_ bv7 8) x34)))
(assert (not (= (_ bv7 8) (_ bv1 8))))
(assert (not (= (_ bv7 8) (_ bv9 8))))
(assert (not (= (_ bv7 8) (_ bv3 8))))
(assert (not (= (_ bv7 8) x74)))
(assert (not (= (_ bv7 8) (_ bv6 8))))
(assert (not (= x24 x34)))
(assert (not (= x24 (_ bv1 8))))
(assert (not (= x24 (_ bv9 8))))
(assert (not (= x24 (_ bv3 8))))
(assert (not (= x24 x74)))
(assert (not (= x24 (_ bv6 8))))
(assert (not (= x34 (_ bv1 8))))
(assert (not (= x34 (_ bv9 8))))
(assert (not (= x34 (_ bv3 8))))
(assert (not (= x34 x74)))
(assert (not (= x34 (_ bv6 8))))
(assert (not (= (_ bv1 8) (_ bv9 8))))
(assert (not (= (_ bv1 8) (_ bv3 8))))
(assert (not (= (_ bv1 8) x74)))
(assert (not (= (_ bv1 8) (_ bv6 8))))
(assert (not (= (_ bv9 8) (_ bv3 8))))
(assert (not (= (_ bv9 8) x74)))
(assert (not (= (_ bv9 8) (_ bv6 8))))
(assert (not (= (_ bv3 8) x74)))
(assert (not (= (_ bv3 8) (_ bv6 8))))
(assert (not (= x74 (_ bv6 8))))
(assert (not (= x05 x15)))
(assert (not (= x05 (_ bv8 8))))
(assert (not (= x05 x35)))
(assert (not (= x05 x45)))
(assert (not (= x05 (_ bv3 8))))
(assert (not (= x05 x65)))
(assert (not (= x05 (_ bv1 8))))
(assert (not (= x05 x85)))
(assert (not (= x15 (_ bv8 8))))
(assert (not (= x15 x35)))
(assert (not (= x15 x45)))
(assert (not (= x15 (_ bv3 8))))
(assert (not (= x15 x65)))
(assert (not (= x15 (_ bv1 8))))
(assert (not (= x15 x85)))
(assert (not (= (_ bv8 8) x35)))
(assert (not (= (_ bv8 8) x45)))
(assert (not (= (_ bv8 8) (_ bv3 8))))
(assert (not (= (_ bv8 8) x65)))
(assert (not (= (_ bv8 8) (_ bv1 8))))
(assert (not (= (_ bv8 8) x85)))
(assert (not (= x35 x45)))
(assert (not (= x35 (_ bv3 8))))
(assert (not (= x35 x65)))
(assert (not (= x35 (_ bv1 8))))
(assert (not (= x35 x85)))
(assert (not (= x45 (_ bv3 8))))
(assert (not (= x45 x65)))
(assert (not (= x45 (_ bv1 8))))
(assert (not (= x45 x85)))
(assert (not (= (_ bv3 8) x65)))
(assert (not (= (_ bv3 8) (_ bv1 8))))
(assert (not (= (_ bv3 8) x85)))
(assert (not (= x65 (_ bv1 8))))
(assert (not (= x65 x85)))
(assert (not (= (_ bv1 8) x85)))
(assert (not (= x06 (_ bv9 8))))
(assert (not (= x06 (_ bv4 8))))
(assert (not (= x06 x36)))
(assert (not (= x06 (_ bv5 8))))
(assert (not (= x06 x56)))
(assert (not (= x06 x66)))
(assert (not (= x06 (_ bv6 8))))
(assert (not (= x06 x86)))
(assert (not (= (_ bv9 8) (_ bv4 8))))
(assert (not (= (_ bv9 8) x36)))
(assert (not (= (_ bv9 8) (_ bv5 8))))
(assert (not (= (_ bv9 8) x56)))
(assert (not (= (_ bv9 8) x66)))
(assert (not (= (_ bv9 8) (_ bv6 8))))
(assert (not (= (_ bv9 8) x86)))
(assert (not (= (_ bv4 8) x36)))
(assert (not (= (_ bv4 8) (_ bv5 8))))
(assert (not (= (_ bv4 8) x56)))
(assert (not (= (_ bv4 8) x66)))
(assert (not (= (_ bv4 8) (_ bv6 8))))
(assert (not (= (_ bv4 8) x86)))
(assert (not (= x36 (_ bv5 8))))
(assert (not (= x36 x56)))
(assert (not (= x36 x66)))
(assert (not (= x36 (_ bv6 8))))
(assert (not (= x36 x86)))
(assert (not (= (_ bv5 8) x56)))
(assert (not (= (_ bv5 8) x66)))
(assert (not (= (_ bv5 8) (_ bv6 8))))
(assert (not (= (_ bv5 8) x86)))
(assert (not (= x56 x66)))
(assert (not (= x56 (_ bv6 8))))
(assert (not (= x56 x86)))
(assert (not (= x66 (_ bv6 8))))
(assert (not (= x66 x86)))
(assert (not (= (_ bv6 8) x86)))
(assert (not (= x07 x17)))
(assert (not (= x07 x27)))
(assert (not (= x07 x37)))
(assert (not (= x07 (_ bv8 8))))
(assert (not (= x07 x57)))
(assert (not (= x07 (_ bv5 8))))
(assert (not (= x07 x77)))
(assert (not (= x07 (_ bv3 8))))
(assert (not (= x17 x27)))
(assert (not (= x17 x37)))
(assert (not (= x17 (_ bv8 8))))
(assert (not (= x17 x57)))
(assert (not (= x17 (_ bv5 8))))
(assert (not (= x17 x77)))
(assert (not (= x17 (_ bv3 8))))
(assert (not (= x27 x37)))
(assert (not (= x27 (_ bv8 8))))
(assert (not (= x27 x57)))
(assert (not (= x27 (_ bv5 8))))
(assert (not (= x27 x77)))
(assert (not (= x27 (_ bv3 8))))
(assert (not (= x37 (_ bv8 8))))
(assert (not (= x37 x57)))
(assert (not (= x37 (_ bv5 8))))
(assert (not (= x37 x77)))
(assert (not (= x37 (_ bv3 8))))
(assert (not (= (_ bv8 8) x57)))
(assert (not (= (_ bv8 8) (_ bv5 8))))
(assert (not (= (_ bv8 8) x77)))
(assert (not (= (_ bv8 8) (_ bv3 8))))
(assert (not (= x57 (_ bv5 8))))
(assert (not (= x57 x77)))
(assert (not (= x57 (_ bv3 8))))
(assert (not (= (_ bv5 8) x77)))
(assert (not (= (_ bv5 8) (_ bv3 8))))
(assert (not (= x77 (_ bv3 8))))
(assert (not (= (_ bv3 8) x18)))
(assert (not (= (_ bv3 8) x28)))
(assert (not (= (_ bv3 8) (_ bv4 8))))
(assert (not (= (_ bv3 8) x48)))
(assert (not (= (_ bv3 8) x58)))
(assert (not (= (_ bv3 8) x68)))
(assert (not (= (_ bv3 8) (_ bv2 8))))
(assert (not (= (_ bv3 8) (_ bv1 8))))
(assert (not (= x18 x28)))
(assert (not (= x18 (_ bv4 8))))
(assert (not (= x18 x48)))
(assert (not (= x18 x58)))
(assert (not (= x18 x68)))
(assert (not (= x18 (_ bv2 8))))
(assert (not (= x18 (_ bv1 8))))
(assert (not (= x28 (_ bv4 8))))
(assert (not (= x28 x48)))
(assert (not (= x28 x58)))
(assert (not (= x28 x68)))
(assert (not (= x28 (_ bv2 8))))
(assert (not (= x28 (_ bv1 8))))
(assert (not (= (_ bv4 8) x48)))
(assert (not (= (_ bv4 8) x58)))
(assert (not (= (_ bv4 8) x68)))
(assert (not (= (_ bv4 8) (_ bv2 8))))
(assert (not (= (_ bv4 8) (_ bv1 8))))
(assert (not (= x48 x58)))
(assert (not (= x48 x68)))
(assert (not (= x48 (_ bv2 8))))
(assert (not (= x48 (_ bv1 8))))
(assert (not (= x58 x68)))
(assert (not (= x58 (_ bv2 8))))
(assert (not (= x58 (_ bv1 8))))
(assert (not (= x68 (_ bv2 8))))
(assert (not (= x68 (_ bv1 8))))
(assert (not (= (_ bv2 8) (_ bv1 8))))
(assert (not (= (_ bv2 8) x01)))
(assert (not (= (_ bv2 8) x02)))
(assert (not (= (_ bv2 8) x10)))
(assert (not (= (_ bv2 8) (_ bv3 8))))
(assert (not (= (_ bv2 8) (_ bv5 8))))
(assert (not (= (_ bv2 8) (_ bv6 8))))
(assert (not (= (_ bv2 8) x21)))
(assert (not (= (_ bv2 8) (_ bv1 8))))
(assert (not (= x01 x02)))
(assert (not (= x01 x10)))
(assert (not (= x01 (_ bv3 8))))
(assert (not (= x01 (_ bv5 8))))
(assert (not (= x01 (_ bv6 8))))
(assert (not (= x01 x21)))
(assert (not (= x01 (_ bv1 8))))
(assert (not (= x02 x10)))
(assert (not (= x02 (_ bv3 8))))
(assert (not (= x02 (_ bv5 8))))
(assert (not (= x02 (_ bv6 8))))
(assert (not (= x02 x21)))
(assert (not (= x02 (_ bv1 8))))
(assert (not (= x10 (_ bv3 8))))
(assert (not (= x10 (_ bv5 8))))
(assert (not (= x10 (_ bv6 8))))
(assert (not (= x10 x21)))
(assert (not (= x10 (_ bv1 8))))
(assert (not (= (_ bv3 8) (_ bv5 8))))
(assert (not (= (_ bv3 8) (_ bv6 8))))
(assert (not (= (_ bv3 8) x21)))
(assert (not (= (_ bv3 8) (_ bv1 8))))
(assert (not (= (_ bv5 8) (_ bv6 8))))
(assert (not (= (_ bv5 8) x21)))
(assert (not (= (_ bv5 8) (_ bv1 8))))
(assert (not (= (_ bv6 8) x21)))
(assert (not (= (_ bv6 8) (_ bv1 8))))
(assert (not (= x21 (_ bv1 8))))
(assert (not (= (_ bv9 8) x04)))
(assert (not (= (_ bv9 8) x05)))
(assert (not (= (_ bv9 8) x13)))
(assert (not (= (_ bv9 8) (_ bv7 8))))
(assert (not (= (_ bv9 8) x15)))
(assert (not (= (_ bv9 8) x23)))
(assert (not (= (_ bv9 8) x24)))
(assert (not (= (_ bv9 8) (_ bv8 8))))
(assert (not (= x04 x05)))
(assert (not (= x04 x13)))
(assert (not (= x04 (_ bv7 8))))
(assert (not (= x04 x15)))
(assert (not (= x04 x23)))
(assert (not (= x04 x24)))
(assert (not (= x04 (_ bv8 8))))
(assert (not (= x05 x13)))
(assert (not (= x05 (_ bv7 8))))
(assert (not (= x05 x15)))
(assert (not (= x05 x23)))
(assert (not (= x05 x24)))
(assert (not (= x05 (_ bv8 8))))
(assert (not (= x13 (_ bv7 8))))
(assert (not (= x13 x15)))
(assert (not (= x13 x23)))
(assert (not (= x13 x24)))
(assert (not (= x13 (_ bv8 8))))
(assert (not (= (_ bv7 8) x15)))
(assert (not (= (_ bv7 8) x23)))
(assert (not (= (_ bv7 8) x24)))
(assert (not (= (_ bv7 8) (_ bv8 8))))
(assert (not (= x15 x23)))
(assert (not (= x15 x24)))
(assert (not (= x15 (_ bv8 8))))
(assert (not (= x23 x24)))
(assert (not (= x23 (_ bv8 8))))
(assert (not (= x24 (_ bv8 8))))
(assert (not (= x06 x07)))
(assert (not (= x06 (_ bv3 8))))
(assert (not (= x06 (_ bv9 8))))
(assert (not (= x06 x17)))
(assert (not (= x06 x18)))
(assert (not (= x06 (_ bv4 8))))
(assert (not (= x06 x27)))
(assert (not (= x06 x28)))
(assert (not (= x07 (_ bv3 8))))
(assert (not (= x07 (_ bv9 8))))
(assert (not (= x07 x17)))
(assert (not (= x07 x18)))
(assert (not (= x07 (_ bv4 8))))
(assert (not (= x07 x27)))
(assert (not (= x07 x28)))
(assert (not (= (_ bv3 8) (_ bv9 8))))
(assert (not (= (_ bv3 8) x17)))
(assert (not (= (_ bv3 8) x18)))
(assert (not (= (_ bv3 8) (_ bv4 8))))
(assert (not (= (_ bv3 8) x27)))
(assert (not (= (_ bv3 8) x28)))
(assert (not (= (_ bv9 8) x17)))
(assert (not (= (_ bv9 8) x18)))
(assert (not (= (_ bv9 8) (_ bv4 8))))
(assert (not (= (_ bv9 8) x27)))
(assert (not (= (_ bv9 8) x28)))
(assert (not (= x17 x18)))
(assert (not (= x17 (_ bv4 8))))
(assert (not (= x17 x27)))
(assert (not (= x17 x28)))
(assert (not (= x18 (_ bv4 8))))
(assert (not (= x18 x27)))
(assert (not (= x18 x28)))
(assert (not (= (_ bv4 8) x27)))
(assert (not (= (_ bv4 8) x28)))
(assert (not (= x27 x28)))
(assert (not (= x30 x31)))
(assert (not (= x30 x32)))
(assert (not (= x30 x40)))
(assert (not (= x30 x41)))
(assert (not (= x30 (_ bv9 8))))
(assert (not (= x30 x50)))
(assert (not (= x30 (_ bv7 8))))
(assert (not (= x30 x52)))
(assert (not (= x31 x32)))
(assert (not (= x31 x40)))
(assert (not (= x31 x41)))
(assert (not (= x31 (_ bv9 8))))
(assert (not (= x31 x50)))
(assert (not (= x31 (_ bv7 8))))
(assert (not (= x31 x52)))
(assert (not (= x32 x40)))
(assert (not (= x32 x41)))
(assert (not (= x32 (_ bv9 8))))
(assert (not (= x32 x50)))
(assert (not (= x32 (_ bv7 8))))
(assert (not (= x32 x52)))
(assert (not (= x40 x41)))
(assert (not (= x40 (_ bv9 8))))
(assert (not (= x40 x50)))
(assert (not (= x40 (_ bv7 8))))
(assert (not (= x40 x52)))
(assert (not (= x41 (_ bv9 8))))
(assert (not (= x41 x50)))
(assert (not (= x41 (_ bv7 8))))
(assert (not (= x41 x52)))
(assert (not (= (_ bv9 8) x50)))
(assert (not (= (_ bv9 8) (_ bv7 8))))
(assert (not (= (_ bv9 8) x52)))
(assert (not (= x50 (_ bv7 8))))
(assert (not (= x50 x52)))
(assert (not (= (_ bv7 8) x52)))
(assert (not (= x33 x34)))
(assert (not (= x33 x35)))
(assert (not (= x33 (_ bv6 8))))
(assert (not (= x33 (_ bv1 8))))
(assert (not (= x33 x45)))
(assert (not (= x33 (_ bv4 8))))
(assert (not (= x33 (_ bv9 8))))
(assert (not (= x33 (_ bv3 8))))
(assert (not (= x34 x35)))
(assert (not (= x34 (_ bv6 8))))
(assert (not (= x34 (_ bv1 8))))
(assert (not (= x34 x45)))
(assert (not (= x34 (_ bv4 8))))
(assert (not (= x34 (_ bv9 8))))
(assert (not (= x34 (_ bv3 8))))
(assert (not (= x35 (_ bv6 8))))
(assert (not (= x35 (_ bv1 8))))
(assert (not (= x35 x45)))
(assert (not (= x35 (_ bv4 8))))
(assert (not (= x35 (_ bv9 8))))
(assert (not (= x35 (_ bv3 8))))
(assert (not (= (_ bv6 8) (_ bv1 8))))
(assert (not (= (_ bv6 8) x45)))
(assert (not (= (_ bv6 8) (_ bv4 8))))
(assert (not (= (_ bv6 8) (_ bv9 8))))
(assert (not (= (_ bv6 8) (_ bv3 8))))
(assert (not (= (_ bv1 8) x45)))
(assert (not (= (_ bv1 8) (_ bv4 8))))
(assert (not (= (_ bv1 8) (_ bv9 8))))
(assert (not (= (_ bv1 8) (_ bv3 8))))
(assert (not (= x45 (_ bv4 8))))
(assert (not (= x45 (_ bv9 8))))
(assert (not (= x45 (_ bv3 8))))
(assert (not (= (_ bv4 8) (_ bv9 8))))
(assert (not (= (_ bv4 8) (_ bv3 8))))
(assert (not (= (_ bv9 8) (_ bv3 8))))
(assert (not (= x36 x37)))
(assert (not (= x36 (_ bv4 8))))
(assert (not (= x36 (_ bv5 8))))
(assert (not (= x36 (_ bv8 8))))
(assert (not (= x36 x48)))
(assert (not (= x36 x56)))
(assert (not (= x36 x57)))
(assert (not (= x36 x58)))
(assert (not (= x37 (_ bv4 8))))
(assert (not (= x37 (_ bv5 8))))
(assert (not (= x37 (_ bv8 8))))
(assert (not (= x37 x48)))
(assert (not (= x37 x56)))
(assert (not (= x37 x57)))
(assert (not (= x37 x58)))
(assert (not (= (_ bv4 8) (_ bv5 8))))
(assert (not (= (_ bv4 8) (_ bv8 8))))
(assert (not (= (_ bv4 8) x48)))
(assert (not (= (_ bv4 8) x56)))
(assert (not (= (_ bv4 8) x57)))
(assert (not (= (_ bv4 8) x58)))
(assert (not (= (_ bv5 8) (_ bv8 8))))
(assert (not (= (_ bv5 8) x48)))
(assert (not (= (_ bv5 8) x56)))
(assert (not (= (_ bv5 8) x57)))
(assert (not (= (_ bv5 8) x58)))
(assert (not (= (_ bv8 8) x48)))
(assert (not (= (_ bv8 8) x56)))
(assert (not (= (_ bv8 8) x57)))
(assert (not (= (_ bv8 8) x58)))
(assert (not (= x48 x56)))
(assert (not (= x48 x57)))
(assert (not (= x48 x58)))
(assert (not (= x56 x57)))
(assert (not (= x56 x58)))
(assert (not (= x57 x58)))
(assert (not (= (_ bv7 8) x61)))
(assert (not (= (_ bv7 8) x62)))
(assert (not (= (_ bv7 8) x70)))
(assert (not (= (_ bv7 8) x71)))
(assert (not (= (_ bv7 8) x72)))
(assert (not (= (_ bv7 8) (_ bv8 8))))
(assert (not (= (_ bv7 8) (_ bv2 8))))
(assert (not (= (_ bv7 8) x82)))
(assert (not (= x61 x62)))
(assert (not (= x61 x70)))
(assert (not (= x61 x71)))
(assert (not (= x61 x72)))
(assert (not (= x61 (_ bv8 8))))
(assert (not (= x61 (_ bv2 8))))
(assert (not (= x61 x82)))
(assert (not (= x62 x70)))
(assert (not (= x62 x71)))
(assert (not (= x62 x72)))
(assert (not (= x62 (_ bv8 8))))
(assert (not (= x62 (_ bv2 8))))
(assert (not (= x62 x82)))
(assert (not (= x70 x71)))
(assert (not (= x70 x72)))
(assert (not (= x70 (_ bv8 8))))
(assert (not (= x70 (_ bv2 8))))
(assert (not (= x70 x82)))
(assert (not (= x71 x72)))
(assert (not (= x71 (_ bv8 8))))
(assert (not (= x71 (_ bv2 8))))
(assert (not (= x71 x82)))
(assert (not (= x72 (_ bv8 8))))
(assert (not (= x72 (_ bv2 8))))
(assert (not (= x72 x82)))
(assert (not (= (_ bv8 8) (_ bv2 8))))
(assert (not (= (_ bv8 8) x82)))
(assert (not (= (_ bv2 8) x82)))
(assert (not (= (_ bv2 8) (_ bv3 8))))
(assert (not (= (_ bv2 8) x65)))
(assert (not (= (_ bv2 8) x73)))
(assert (not (= (_ bv2 8) x74)))
(assert (not (= (_ bv2 8) (_ bv1 8))))
(assert (not (= (_ bv2 8) x83)))
(assert (not (= (_ bv2 8) (_ bv6 8))))
(assert (not (= (_ bv2 8) x85)))
(assert (not (= (_ bv3 8) x65)))
(assert (not (= (_ bv3 8) x73)))
(assert (not (= (_ bv3 8) x74)))
(assert (not (= (_ bv3 8) (_ bv1 8))))
(assert (not (= (_ bv3 8) x83)))
(assert (not (= (_ bv3 8) (_ bv6 8))))
(assert (not (= (_ bv3 8) x85)))
(assert (not (= x65 x73)))
(assert (not (= x65 x74)))
(assert (not (= x65 (_ bv1 8))))
(assert (not (= x65 x83)))
(assert (not (= x65 (_ bv6 8))))
(assert (not (= x65 x85)))
(assert (not (= x73 x74)))
(assert (not (= x73 (_ bv1 8))))
(assert (not (= x73 x83)))
(assert (not (= x73 (_ bv6 8))))
(assert (not (= x73 x85)))
(assert (not (= x74 (_ bv1 8))))
(assert (not (= x74 x83)))
(assert (not (= x74 (_ bv6 8))))
(assert (not (= x74 x85)))
(assert (not (= (_ bv1 8) x83)))
(assert (not (= (_ bv1 8) (_ bv6 8))))
(assert (not (= (_ bv1 8) x85)))
(assert (not (= x83 (_ bv6 8))))
(assert (not (= x83 x85)))
(assert (not (= (_ bv6 8) x85)))
(assert (not (= x66 (_ bv5 8))))
(assert (not (= x66 x68)))
(assert (not (= x66 (_ bv6 8))))
(assert (not (= x66 x77)))
(assert (not (= x66 (_ bv2 8))))
(assert (not (= x66 x86)))
(assert (not (= x66 (_ bv3 8))))
(assert (not (= x66 (_ bv1 8))))
(assert (not (= (_ bv5 8) x68)))
(assert (not (= (_ bv5 8) (_ bv6 8))))
(assert (not (= (_ bv5 8) x77)))
(assert (not (= (_ bv5 8) (_ bv2 8))))
(assert (not (= (_ bv5 8) x86)))
(assert (not (= (_ bv5 8) (_ bv3 8))))
(assert (not (= (_ bv5 8) (_ bv1 8))))
(assert (not (= x68 (_ bv6 8))))
(assert (not (= x68 x77)))
(assert (not (= x68 (_ bv2 8))))
(assert (not (= x68 x86)))
(assert (not (= x68 (_ bv3 8))))
(assert (not (= x68 (_ bv1 8))))
(assert (not (= (_ bv6 8) x77)))
(assert (not (= (_ bv6 8) (_ bv2 8))))
(assert (not (= (_ bv6 8) x86)))
(assert (not (= (_ bv6 8) (_ bv3 8))))
(assert (not (= (_ bv6 8) (_ bv1 8))))
(assert (not (= x77 (_ bv2 8))))
(assert (not (= x77 x86)))
(assert (not (= x77 (_ bv3 8))))
(assert (not (= x77 (_ bv1 8))))
(assert (not (= (_ bv2 8) x86)))
(assert (not (= (_ bv2 8) (_ bv3 8))))
(assert (not (= (_ bv2 8) (_ bv1 8))))
(assert (not (= x86 (_ bv3 8))))
(assert (not (= x86 (_ bv1 8))))
(assert (not (= (_ bv3 8) (_ bv1 8))))
(check-sat)
(exit)
